p tw 20 87
1 2
1 11
1 13
1 15
1 17
1 18
1 19
1 20
1 4
1 5
1 6
1 8
2 11
2 12
2 13
2 14
2 15
2 16
2 17
2 18
2 20
2 3
2 5
2 7
2 8
2 9
12 14
12 15
12 17
12 20
14 17
3 12
3 13
3 14
3 15
3 16
3 17
3 20
3 6
3 8
3 10
4 11
4 12
4 15
4 16
4 18
4 5
4 7
4 8
4 9
4 10
5 12
5 14
5 17
5 18
5 19
5 20
5 7
5 9
5 10
6 12
6 15
6 18
6 20
6 7
6 8
7 12
7 15
7 16
7 18
7 20
7 9
8 11
8 13
8 14
8 16
8 17
8 18
8 9
9 14
9 15
9 16
9 18
9 10
10 12
10 13
10 19
